c SAT problem
p wcnf 215 771
1 75 -76 0
1 -75 -3120 0
1 75 60 0
1 -75 -3135 0
1 90 -3105 0
1 -90 -3075 0
1 90 3090 0
1 90 3060 0
1 -105 -3105 0
1 105 -90 0
1 -3120 -196 0
1 -3120 135 0
1 -3120 181 0
1 -3120 120 0
1 -3120 -90 0
1 3120 60 0
1 3135 135 0
1 -3135 75 0
1 3135 150 0
1 -3150 -166 0
1 -3150 136 0
1 3150 60 0
1 3165 166 0
1 3165 121 0
1 120 3060 0
1 120 121 0
1 -135 -136 0
1 -150 3105 0
1 150 3075 0
1 -150 3090 0
1 -150 -3060 0
1 -150 3135 0
1 -165 -3045 0
1 -165 166 0
1 -3060 -3075 0
1 3075 105 0
1 -3075 240 0
1 -3075 -3060 0
1 3075 255 0
1 3090 -3105 0
1 -3090 -226 0
1 3090 135 0
1 -3090 105 0
1 -3090 -120 0
1 -3090 255 0
1 -3105 -105 0
1 -3105 -240 0
1 3105 -181 0
1 -3105 -150 0
1 3105 120 0
1 -180 -3075 0
1 180 -181 0
1 -195 -3075 0
1 195 3015 0
1 -195 -180 0
1 -195 3060 0
1 210 225 0
1 -210 -3045 0
1 225 -3015 0
1 -225 -3060 0
1 -3015 195 0
1 3015 165 0
1 3015 -300 0
1 -3030 3045 0
1 3045 225 0
1 -3045 270 0
1 3045 3030 0
1 3045 -315 0
1 -3045 285 0
1 -61 -76 0
1 -76 3300 0
1 91 -3270 0
1 91 106 0
1 -91 3315 0
1 106 -3285 0
1 -106 91 0
1 3300 166 0
1 3300 3301 0
1 -3300 136 0
1 -3300 76 0
1 -3300 -182 0
1 3300 -121 0
1 -3315 -166 0
1 -3315 182 0
1 -3315 121 0
1 -3330 -3331 0
1 3330 167 0
1 -3330 106 0
1 3330 76 0
1 3330 -3345 0
1 -3330 152 0
1 -3345 167 0
1 -121 136 0
1 -121 120 0
1 -121 3165 0
1 136 3285 0
1 -151 -166 0
1 166 3270 0
1 -166 -3180 0
1 -166 -3285 0
1 -166 -151 0
1 -166 3165 0
1 3240 -256 0
1 3240 -3241 0
1 -3240 106 0
1 -3240 181 0
1 -3240 -91 0
1 -3255 -256 0
1 3255 196 0
1 3255 -241 0
1 -3255 181 0
1 -3255 -3256 0
1 3255 121 0
1 3270 166 0
1 -3270 -106 0
1 3270 -241 0
1 3270 121 0
1 3270 91 0
1 3285 3270 0
1 -3285 -106 0
1 3285 3286 0
1 181 3240 0
1 181 -3210 0
1 -181 3135 0
1 196 -197 0
1 -196 3210 0
1 -196 -3150 0
1 -196 3120 0
1 -211 3240 0
1 -211 3090 0
1 226 3210 0
1 -226 3151 0
1 -226 -3121 0
1 -226 -3195 0
1 226 3166 0
1 3180 -196 0
1 3180 -301 0
1 3180 -270 0
1 3180 181 0
1 -3180 285 0
1 -3195 226 0
1 3195 196 0
1 -3195 166 0
1 -3195 3180 0
1 -3195 301 0
1 -3195 -270 0
1 -3195 181 0
1 3195 -151 0
1 3210 -256 0
1 -3210 196 0
1 -3210 -3211 0
1 -3210 181 0
1 -3210 151 0
1 3225 196 0
1 -3225 166 0
1 3225 301 0
1 -3225 211 0
1 240 -3105 0
1 240 -3045 0
1 240 -3151 0
1 -240 3090 0
1 255 3105 0
1 -255 3045 0
1 -255 240 0
1 -255 3121 0
1 255 3060 0
1 -270 -3136 0
1 -270 -3106 0
1 270 -3045 0
1 -270 271 0
1 -270 3151 0
1 -270 3121 0
1 270 3091 0
1 -270 285 0
1 270 -3166 0
1 -285 -3136 0
1 285 3106 0
1 285 -3121 0
1 -285 3195 0
1 -285 286 0
1 -3121 -226 0
1 3121 330 0
1 3121 -240 0
1 -3121 3122 0
1 3136 -3137 0
1 -3136 330 0
1 -3136 270 0
1 -3136 3135 0
1 3136 -255 0
1 3151 -376 0
1 -3151 -346 0
1 3151 316 0
1 -3166 -226 0
1 -3166 3151 0
1 3166 -346 0
1 -3166 -285 0
1 3166 3167 0
1 3166 -255 0
1 -300 -3045 0
1 -300 3076 0
1 -300 -3030 0
1 -300 3000 0
1 315 3045 0
1 315 3015 0
1 315 3121 0
1 315 -3000 0
1 315 316 0
1 -330 3136 0
1 330 3076 0
1 330 345 0
1 330 -331 0
1 330 -3121 0
1 330 3031 0
1 -345 -3136 0
1 345 3076 0
1 -345 -3046 0
1 -345 3016 0
1 -345 3091 0
1 -345 -3031 0
1 3061 300 0
1 -3061 405 0
1 -3076 300 0
1 3076 375 0
1 3091 -345 0
1 3091 315 0
1 -3106 3105 0
1 -3106 3107 0
1 3106 -391 0
1 3106 -300 0
1 3106 -345 0
1 3106 -285 0
1 360 -375 0
1 -375 3076 0
1 375 3016 0
1 390 -405 0
1 390 -3031 0
1 405 -3016 0
1 -3001 -3016 0
1 -3001 405 0
1 -3001 -375 0
1 -3001 -3000 0
1 -3001 -345 0
1 3016 -390 0
1 -3016 -495 0
1 3031 -360 0
1 3031 495 0
1 -3031 345 0
1 -3046 345 0
1 62 3525 0
1 -62 -3510 0
1 62 -61 0
1 77 3480 0
1 -92 -3525 0
1 92 3435 0
1 -92 -3450 0
1 92 91 0
1 -92 3420 0
1 -107 -3495 0
1 -107 3465 0
1 -3480 -107 0
1 -3480 -3481 0
1 3480 -122 0
1 -3495 137 0
1 -3495 -62 0
1 3525 -77 0
1 -3525 92 0
1 -122 -3330 0
1 -122 137 0
1 -122 3480 0
1 122 3450 0
1 -122 3420 0
1 137 136 0
1 -137 -122 0
1 152 -3330 0
1 152 3465 0
1 152 3345 0
1 -152 151 0
1 -152 3480 0
1 -152 3450 0
1 -152 3390 0
1 -167 3360 0
1 -167 3465 0
1 167 3435 0
1 -167 3375 0
1 -167 3345 0
1 3420 227 0
1 -3420 242 0
1 3435 -3420 0
1 -3435 -152 0
1 -3435 -92 0
1 -3450 -167 0
1 -3450 137 0
1 3465 167 0
1 182 3435 0
1 182 -3405 0
1 182 3375 0
1 -182 3345 0
1 -197 196 0
1 -197 3435 0
1 197 3315 0
1 197 -3390 0
1 212 3360 0
1 212 3316 0
1 -212 -3285 0
1 -227 -3360 0
1 -227 -3301 0
1 -227 3270 0
1 227 -3435 0
1 227 -3375 0
1 227 -212 0
1 227 -3285 0
1 -3360 167 0
1 -3360 3375 0
1 3360 -212 0
1 -3360 -182 0
1 3360 317 0
1 -3375 3360 0
1 -3375 -167 0
1 -3375 3376 0
1 -3375 -182 0
1 3375 152 0
1 -3375 286 0
1 3390 -257 0
1 3390 -227 0
1 -3390 -3391 0
1 -3390 -182 0
1 -3390 152 0
1 -3390 287 0
1 3405 -227 0
1 -3405 -197 0
1 3405 302 0
1 3405 212 0
1 3405 -152 0
1 241 256 0
1 241 -3360 0
1 241 3270 0
1 241 -242 0
1 256 257 0
1 256 -3301 0
1 256 -3316 0
1 256 3255 0
1 -256 255 0
1 -271 -3271 0
1 -271 -3375 0
1 -271 3346 0
1 -271 3316 0
1 271 3256 0
1 -271 -286 0
1 286 -3301 0
1 286 -3241 0
1 -286 3210 0
1 -286 -271 0
1 -286 -3346 0
1 286 -3256 0
1 286 -285 0
1 3301 -256 0
1 3316 227 0
1 3316 -241 0
1 -3316 -3315 0
1 3316 -377 0
1 3331 271 0
1 -3331 3346 0
1 -3331 212 0
1 -3346 302 0
1 -301 302 0
1 -316 3301 0
1 316 3271 0
1 -316 3256 0
1 -316 -317 0
1 -316 -3166 0
1 331 -3301 0
1 -331 -3196 0
1 346 -3151 0
1 346 -3286 0
1 -346 -3256 0
1 346 -347 0
1 -3241 3256 0
1 -3241 391 0
1 3241 -331 0
1 -3241 301 0
1 3241 -286 0
1 3256 -3241 0
1 3256 331 0
1 3256 406 0
1 -3256 316 0
1 -3271 -421 0
1 3271 3270 0
1 3271 -436 0
1 3271 3286 0
1 -3271 286 0
1 -3286 -3287 0
1 3286 -362 0
1 3286 331 0
1 3286 -271 0
1 -3286 286 0
1 361 -3136 0
1 361 -3256 0
1 361 -360 0
1 361 -3211 0
1 361 3181 0
1 -361 3226 0
1 376 -3136 0
1 376 -3106 0
1 376 -3241 0
1 376 -3181 0
1 -376 -377 0
1 376 -3166 0
1 391 390 0
1 -391 -392 0
1 -391 -3241 0
1 391 3211 0
1 -391 3256 0
1 406 3137 0
1 -406 -3122 0
1 -3181 -361 0
1 -3181 -376 0
1 -3196 -331 0
1 -3196 -3197 0
1 3211 -481 0
1 3211 3226 0
1 3211 -331 0
1 3211 436 0
1 3226 -451 0
1 3226 391 0
1 -3226 -3211 0
1 -3226 496 0
1 -3226 466 0
1 -3226 -436 0
1 3226 -376 0
1 3226 -3225 0
1 -420 -3181 0
1 -420 3061 0
1 435 3137 0
1 435 3076 0
1 -435 -3181 0
1 435 3152 0
1 -435 -3091 0
1 -435 3061 0
1 -435 -3167 0
1 -450 3181 0
1 450 -3152 0
1 450 -3092 0
1 -450 3031 0
1 -465 -3137 0
1 -465 -450 0
1 465 -3107 0
1 465 3077 0
1 -465 -3152 0
1 -465 -3122 0
1 465 3092 0
1 -465 3167 0
1 -3122 -480 0
1 -3122 450 0
1 -3122 420 0
1 -3122 -391 0
1 3122 556 0
1 3122 -406 0
1 3137 3136 0
1 -3137 -465 0
1 -3137 541 0
1 -3152 -556 0
1 3152 -3167 0
1 -3167 -450 0
1 -3167 -391 0
1 3167 496 0
1 3167 -3152 0
1 3167 -406 0
1 3167 541 0
1 3167 -3166 0
1 -3167 511 0
1 -480 3137 0
1 480 -3016 0
1 -480 3031 0
1 -495 -480 0
1 495 -3137 0
1 -495 -3122 0
1 510 3077 0
1 -510 3017 0
1 510 -3122 0
1 -510 -3062 0
1 525 -3137 0
1 -525 -3047 0
1 3062 480 0
1 3062 -465 0
1 -3062 3061 0
1 3077 480 0
1 3077 -570 0
1 3077 540 0
1 3092 480 0
1 -3092 586 0
1 3092 465 0
1 3092 -3091 0
1 -3092 510 0
1 3107 -556 0
1 -540 -3017 0
1 540 555 0
1 -540 3062 0
1 540 3032 0
1 555 3062 0
1 555 -3002 0
1 555 540 0
1 570 -3002 0
1 570 -571 0
1 -585 -3002 0
1 -585 -3077 0
1 -585 -3017 0
1 -3002 3001 0
1 3002 540 0
1 3017 525 0
1 -3032 555 0
1 -3032 510 0
1 -3047 -585 0
1 -3047 -525 0
1 -3047 -3032 0
1 242 3450 0
1 -257 -3526 0
1 257 3435 0
1 257 -3405 0
1 257 -3511 0
1 -257 3390 0
1 272 3496 0
1 -272 -271 0
1 -272 -3481 0
1 -272 287 0
1 -287 3526 0
1 287 272 0
1 -287 -286 0
1 3481 -272 0
1 -3481 -242 0
1 3481 3480 0
1 -3481 347 0
1 3496 -272 0
1 -3496 242 0
1 3496 287 0
1 -3511 3526 0
1 -3511 242 0
1 -3526 257 0
1 -3526 242 0
1 -3526 -287 0
1 -302 -3360 0
1 -302 3496 0
1 302 -301 0
1 302 3451 0
1 -302 317 0
1 -317 -3360 0
1 317 -3390 0
1 -317 -3466 0
1 317 -3405 0
1 -317 302 0
1 317 -3375 0
1 317 -3451 0
1 -332 331 0
1 332 3346 0
1 -332 3481 0
1 332 347 0
1 -347 3361 0
1 347 -3331 0
1 347 -3496 0
1 -347 332 0
1 347 -3406 0
1 347 -3481 0
1 347 3421 0
1 -3421 332 0
1 -3421 -3436 0
1 -3421 3420 0
1 -3436 3437 0
1 3436 -437 0
1 3436 -287 0
1 -3451 422 0
1 3451 -287 0
1 3466 3451 0
1 -3466 -317 0
1 3466 -287 0
1 362 -3376 0
1 362 3346 0
1 362 3286 0
1 377 3361 0
1 377 3376 0
1 -377 376 0
1 -392 391 0
1 392 -3406 0
1 392 -3376 0
1 407 3347 0
1 407 3317 0
1 -407 -3286 0
1 -407 406 0
1 407 -3421 0
1 -3361 -421 0
1 -3361 3376 0
1 3361 -436 0
1 -3361 347 0
1 -3376 421 0
1 3376 332 0
1 3376 407 0
1 -3376 347 0
1 3391 -3392 0
1 3391 -452 0
1 -3391 362 0
1 -3391 -332 0
1 3391 -3406 0
1 -3391 437 0
1 -3406 -482 0
1 3406 -422 0
1 3406 -407 0
1 421 -3241 0
1 -421 3211 0
1 421 -3376 0
1 -421 436 0
1 421 -3317 0
1 421 3286 0
1 -421 -3256 0
1 436 3376 0
1 -436 3286 0
1 -436 3317 0
1 -451 -450 0
1 451 3376 0
1 451 3347 0
1 451 3287 0
1 466 -3361 0
1 466 451 0
1 -466 -3332 0
1 466 -3347 0
1 466 -3317 0
1 466 3287 0
1 -3302 -481 0
1 3302 451 0
1 -3302 -496 0
1 3302 -436 0
1 -3302 3317 0
1 3302 511 0
1 3317 -3302 0
1 3317 526 0
1 -3317 436 0
1 3317 -3316 0
1 -3332 527 0
1 -3332 497 0
1 -3332 466 0
1 3332 -3347 0
1 3332 -407 0
1 -3347 421 0
1 -3347 557 0
1 -3347 497 0
1 3347 -466 0
1 -481 3152 0
1 481 3257 0
1 -496 481 0
1 -496 3302 0
1 496 3211 0
1 -496 495 0
1 496 497 0
1 -496 3317 0
1 -496 -3167 0
1 -511 -512 0
1 -511 3242 0
1 -511 -3257 0
1 511 3227 0
1 511 -3197 0
1 -526 -3212 0
1 -526 525 0
1 526 -3182 0
1 -526 -3152 0
1 526 -3287 0
1 -526 -3167 0
1 3242 -451 0
1 3242 -3257 0
1 -3242 -3241 0
1 -3242 556 0
1 -3242 466 0
1 -3242 541 0
1 3242 511 0
1 -3257 -451 0
1 3257 3242 0
1 -3257 526 0
1 -3272 481 0
1 3272 -587 0
1 3272 526 0
1 3287 -587 0
1 3287 557 0
1 -3287 511 0
1 541 -3137 0
1 -541 3182 0
1 -541 3152 0
1 -541 -3257 0
1 -556 -3107 0
1 556 3122 0
1 556 -3092 0
1 556 3197 0
1 556 3227 0
1 -571 3212 0
1 571 -3182 0
1 571 -3227 0
1 -571 3197 0
1 -586 -3227 0
1 3182 -3181 0
1 -3212 -3227 0
1 3227 -556 0
1 -3227 -3226 0
1 3227 -571 0
1 3227 -511 0
1 422 421 0
1 -422 -3436 0
1 -422 3482 0
1 437 3527 0
1 -437 -3406 0
1 -437 -436 0
1 -437 -3451 0
1 -437 3391 0
1 452 -3527 0
1 -452 467 0
1 -452 3512 0
1 -3482 -512 0
1 -3482 -452 0
1 -3482 422 0
1 3482 437 0
1 -3497 -482 0
1 -3497 452 0
1 -3497 -467 0
1 3512 -452 0
1 -3512 467 0
1 -3512 3511 0
1 3527 452 0
1 -3527 -422 0
1 3527 437 0
1 482 481 0
1 -482 -3361 0
1 -482 -3332 0
1 -482 -497 0
1 497 -3497 0
1 -497 -3376 0
1 497 -3482 0
1 -497 3422 0
1 -512 3497 0
1 -512 -3437 0
1 527 -3392 0
1 -527 3362 0
1 527 3437 0
1 -527 -3407 0
1 -527 -3377 0
1 527 3347 0
1 -527 3482 0
1 527 3422 0
1 3422 452 0
1 3422 -557 0
1 3422 -3437 0
1 3422 497 0
1 -3422 572 0
1 -3422 3421 0
1 -3437 557 0
1 -3437 572 0
1 -3452 -497 0
1 -3467 452 0
1 557 -3392 0
1 -557 -3332 0
1 557 3272 0
1 -557 556 0
1 -557 3407 0
1 557 3317 0
1 557 3422 0
1 572 -3362 0
1 572 -587 0
1 -587 -3392 0
1 587 -3272 0
1 -587 -572 0
1 3362 -3377 0
1 3362 572 0
1 -3377 -557 0
1 3377 -572 0
1 -3392 -3407 0
1 3392 -572 0
1 3407 -512 0
1 -3407 527 0
